
Gurobi 6.5.2 (win64) logging started 07/22/16 21:43:10


Gurobi 6.5.2 (win64) logging started 07/22/16 21:43:10

Optimize a model with 1972 rows, 281 columns and 4153 nonzeros
Coefficient statistics:
  Matrix range    [1e+00, 1e+00]
  Objective range [2e+00, 4e+02]
  Bounds range    [1e+00, 1e+00]
  RHS range       [1e+00, 1e+00]
Found heuristic solution: objective 18
Presolve removed 1873 rows and 91 columns
Presolve time: 0.00s
Presolved: 99 rows, 190 columns, 696 nonzeros
Found heuristic solution: objective 1296.0000000
Variable types: 0 continuous, 190 integer (190 binary)

Root relaxation: objective 1.319000e+03, 121 iterations, 0.00 seconds

    Nodes    |    Current Node    |     Objective Bounds      |     Work
 Expl Unexpl |  Obj  Depth IntInf | Incumbent    BestBd   Gap | It/Node Time

*    0     0               0    1319.0000000 1319.00000  0.00%     -    0s

Explored 0 nodes (121 simplex iterations) in 0.00 seconds
Thread count was 8 (of 8 available processors)

Optimal solution found (tolerance 1.00e-04)
Best objective 1.319000000000e+03, best bound 1.319000000000e+03, gap 0.0%

Wrote requested result file 'H1\instance19\\Results19.lp'

